50
    1    46     4
    2    19    48
    3    20    54
    4   100    63
    5     6    28
    6    41    94
    7    70     1
    8    60     8
    9    95    69
   10    83    70
   11    95     8
   12    95    83
   13    63    96
   14    42    16
   15    71    61
   16    52     1
   17    58    81
   18    82    96
   19    87    97
   20     6    58
   21    70    37
   22    55    44
   23    52    56
   24    64    31
   25    93    65
   26    63    32
   27    88    70
   28    20    36
   29    82    10
   30    61    71
   31    93    98
   32    96   100
   33    72    40
   34    47    17
   35    68    44
   36    85     9
   37    41    48
   38    87    53
   39    39    60
   40     8    59
   41    20    51
   42    42     2
   43    18    30
   44    27    34
   45    23    31
   46    75    47
   47    13    58
   48     1    26
   49    93    59
   50    86    68
807
